c User generated cnf file
p cnf 13 31
7 5 -5 0 
10 -12 4 0 
-5 10 11 0 
-5 7 3 0 
13 8 -1 0 
-1 6 13 0 
-10 7 7 0 
13 -12 12 0 
4 4 -6 0 
5 -7 8 0 
7 13 -2 0 
-10 6 1 0 
3 -8 7 0 
5 -6 6 0 
-1 6 11 0 
-6 9 13 0 
9 -6 11 0 
-9 12 6 0 
-4 5 9 0 
11 11 -11 0 
11 7 -2 0 
-2 8 1 0 
-6 4 8 0 
-2 9 3 0 
10 12 -9 0 
-6 6 11 0 
12 8 -8 0 
9 -8 6 0 
8 -2 3 0 
6 13 -7 0 
1 1 -9 0 
